10J3M/DAT/10J3MULA-9.dat
10 3
16.1066 259.4226
31.2884 978.964
5.1573 26.5977
43.506 1892.772
47.0771 2216.2533
31.9899 1023.3537
21.2177 450.1908
19.3246 373.4402
12.3213 151.8144
21.0339 442.4249
2605.0779