10J3M/SOL/10J3MULA-9.sol
solution status: optimal solution found
objective value:                              83.0076
x#1#1                               0.199333905035321 	(obj:0)
x#1#2                               0.800666094964679 	(obj:0)
x#2#1                                               1 	(obj:0)
x#3#1                                               1 	(obj:0)
x#4#1                               0.417166729067274 	(obj:0)
x#4#2                               0.582833270932726 	(obj:0)
x#5#1                               0.273609734039634 	(obj:0)
x#5#3                               0.726390265960366 	(obj:0)
x#6#2                                               1 	(obj:0)
x#7#2                               0.601617856301237 	(obj:0)
x#7#3                               0.398382143698763 	(obj:0)
x#8#3                                               1 	(obj:0)
x#9#1                                               1 	(obj:0)
x#10#3                                              1 	(obj:0)
z                                             83.0076 	(obj:1)
